unsat
(:binary-propagations  38
 :conflicts            1
 :final-checks         1
 :max-generation       1
 :max-memory           25.62
 :memory               21.45
 :mk-bool-var          1725
 :mk-clause            626
 :mk-clause-binary     2918
 :num-allocs           36701447
 :num-checks           1
 :propagations         38
 :quant-instantiations 469
 :restarts             1
 :rlimit-count         321548
 :time                 0.07)
